c instance by G2
c solution = 11001100010101010
c Known solution cost is 685 
p cnf 17 30
w 76 30 69 30 22 14 2 67 47 11 39 64 51 30 61 10 62
7 -1 -8 0
-11 -8 7 0
-6 -3 -11 0
-16 -4 -14 0
11 8 -13 0
-8 13 -11 0
-8 12 7 0
17 13 -15 0
-7 -14 8 0
-11 -10 4 0
5 1 -13 0
-3 13 11 0
12 13 -14 0
13 2 7 0
-13 4 -2 0
4 16 -6 0
8 -17 -13 0
15 1 7 0
3 10 -2 0
-2 -16 -8 0
-8 -10 -11 0
4 -11 12 0
5 -10 -1 0
-9 -16 11 0
-12 6 -16 0
3 12 -10 0
-17 -10 15 0
15 17 1 0
14 9 8 0
-10 11 -4 0
